(set-logic QF_LRA)
(declare-fun X0 () Real )
(declare-fun Y0 () Real )
(declare-fun X1 () Real )
(declare-fun Y1 () Real )
(declare-fun X2 () Real )
(declare-fun Y2 () Real )
(declare-fun X3 () Real )
(declare-fun Y3 () Real )
(declare-fun X4 () Real )
(declare-fun Y4 () Real )
(declare-fun X5 () Real )
(declare-fun Y5 () Real )
(declare-fun X6 () Real )
(declare-fun Y6 () Real )
(declare-fun X7 () Real )
(declare-fun Y7 () Real )
(declare-fun X8 () Real )
(declare-fun Y8 () Real )
(declare-fun Z () Real )
(assert ( and  
( or ( <= ( + X0 87 ) X1 )  ( <= ( + X1 74 ) X0 )  ( <= ( + Y0 26 ) Y1 )  ( <= ( + Y1 29 ) Y0 )  )
( or ( <= ( + X0 87 ) X2 )  ( <= ( + X2 77 ) X0 )  ( <= ( + Y0 26 ) Y2 )  ( <= ( + Y2 52 ) Y0 )  )
( or ( <= ( + X0 87 ) X3 )  ( <= ( + X3 86 ) X0 )  ( <= ( + Y0 26 ) Y3 )  ( <= ( + Y3 32 ) Y0 )  )
( or ( <= ( + X0 87 ) X4 )  ( <= ( + X4 12 ) X0 )  ( <= ( + Y0 26 ) Y4 )  ( <= ( + Y4 1 ) Y0 )  )
( or ( <= ( + X0 87 ) X5 )  ( <= ( + X5 71 ) X0 )  ( <= ( + Y0 26 ) Y5 )  ( <= ( + Y5 23 ) Y0 )  )
( or ( <= ( + X0 87 ) X6 )  ( <= ( + X6 86 ) X0 )  ( <= ( + Y0 26 ) Y6 )  ( <= ( + Y6 71 ) Y0 )  )
( or ( <= ( + X0 87 ) X7 )  ( <= ( + X7 49 ) X0 )  ( <= ( + Y0 26 ) Y7 )  ( <= ( + Y7 45 ) Y0 )  )
( or ( <= ( + X0 87 ) X8 )  ( <= ( + X8 81 ) X0 )  ( <= ( + Y0 26 ) Y8 )  ( <= ( + Y8 93 ) Y0 )  )
( or ( <= ( + X1 74 ) X2 )  ( <= ( + X2 77 ) X1 )  ( <= ( + Y1 29 ) Y2 )  ( <= ( + Y2 52 ) Y1 )  )
( or ( <= ( + X1 74 ) X3 )  ( <= ( + X3 86 ) X1 )  ( <= ( + Y1 29 ) Y3 )  ( <= ( + Y3 32 ) Y1 )  )
( or ( <= ( + X1 74 ) X4 )  ( <= ( + X4 12 ) X1 )  ( <= ( + Y1 29 ) Y4 )  ( <= ( + Y4 1 ) Y1 )  )
( or ( <= ( + X1 74 ) X5 )  ( <= ( + X5 71 ) X1 )  ( <= ( + Y1 29 ) Y5 )  ( <= ( + Y5 23 ) Y1 )  )
( or ( <= ( + X1 74 ) X6 )  ( <= ( + X6 86 ) X1 )  ( <= ( + Y1 29 ) Y6 )  ( <= ( + Y6 71 ) Y1 )  )
( or ( <= ( + X1 74 ) X7 )  ( <= ( + X7 49 ) X1 )  ( <= ( + Y1 29 ) Y7 )  ( <= ( + Y7 45 ) Y1 )  )
( or ( <= ( + X1 74 ) X8 )  ( <= ( + X8 81 ) X1 )  ( <= ( + Y1 29 ) Y8 )  ( <= ( + Y8 93 ) Y1 )  )
( or ( <= ( + X2 77 ) X3 )  ( <= ( + X3 86 ) X2 )  ( <= ( + Y2 52 ) Y3 )  ( <= ( + Y3 32 ) Y2 )  )
( or ( <= ( + X2 77 ) X4 )  ( <= ( + X4 12 ) X2 )  ( <= ( + Y2 52 ) Y4 )  ( <= ( + Y4 1 ) Y2 )  )
( or ( <= ( + X2 77 ) X5 )  ( <= ( + X5 71 ) X2 )  ( <= ( + Y2 52 ) Y5 )  ( <= ( + Y5 23 ) Y2 )  )
( or ( <= ( + X2 77 ) X6 )  ( <= ( + X6 86 ) X2 )  ( <= ( + Y2 52 ) Y6 )  ( <= ( + Y6 71 ) Y2 )  )
( or ( <= ( + X2 77 ) X7 )  ( <= ( + X7 49 ) X2 )  ( <= ( + Y2 52 ) Y7 )  ( <= ( + Y7 45 ) Y2 )  )
( or ( <= ( + X2 77 ) X8 )  ( <= ( + X8 81 ) X2 )  ( <= ( + Y2 52 ) Y8 )  ( <= ( + Y8 93 ) Y2 )  )
( or ( <= ( + X3 86 ) X4 )  ( <= ( + X4 12 ) X3 )  ( <= ( + Y3 32 ) Y4 )  ( <= ( + Y4 1 ) Y3 )  )
( or ( <= ( + X3 86 ) X5 )  ( <= ( + X5 71 ) X3 )  ( <= ( + Y3 32 ) Y5 )  ( <= ( + Y5 23 ) Y3 )  )
( or ( <= ( + X3 86 ) X6 )  ( <= ( + X6 86 ) X3 )  ( <= ( + Y3 32 ) Y6 )  ( <= ( + Y6 71 ) Y3 )  )
( or ( <= ( + X3 86 ) X7 )  ( <= ( + X7 49 ) X3 )  ( <= ( + Y3 32 ) Y7 )  ( <= ( + Y7 45 ) Y3 )  )
( or ( <= ( + X3 86 ) X8 )  ( <= ( + X8 81 ) X3 )  ( <= ( + Y3 32 ) Y8 )  ( <= ( + Y8 93 ) Y3 )  )
( or ( <= ( + X4 12 ) X5 )  ( <= ( + X5 71 ) X4 )  ( <= ( + Y4 1 ) Y5 )  ( <= ( + Y5 23 ) Y4 )  )
( or ( <= ( + X4 12 ) X6 )  ( <= ( + X6 86 ) X4 )  ( <= ( + Y4 1 ) Y6 )  ( <= ( + Y6 71 ) Y4 )  )
( or ( <= ( + X4 12 ) X7 )  ( <= ( + X7 49 ) X4 )  ( <= ( + Y4 1 ) Y7 )  ( <= ( + Y7 45 ) Y4 )  )
( or ( <= ( + X4 12 ) X8 )  ( <= ( + X8 81 ) X4 )  ( <= ( + Y4 1 ) Y8 )  ( <= ( + Y8 93 ) Y4 )  )
( or ( <= ( + X5 71 ) X6 )  ( <= ( + X6 86 ) X5 )  ( <= ( + Y5 23 ) Y6 )  ( <= ( + Y6 71 ) Y5 )  )
( or ( <= ( + X5 71 ) X7 )  ( <= ( + X7 49 ) X5 )  ( <= ( + Y5 23 ) Y7 )  ( <= ( + Y7 45 ) Y5 )  )
( or ( <= ( + X5 71 ) X8 )  ( <= ( + X8 81 ) X5 )  ( <= ( + Y5 23 ) Y8 )  ( <= ( + Y8 93 ) Y5 )  )
( or ( <= ( + X6 86 ) X7 )  ( <= ( + X7 49 ) X6 )  ( <= ( + Y6 71 ) Y7 )  ( <= ( + Y7 45 ) Y6 )  )
( or ( <= ( + X6 86 ) X8 )  ( <= ( + X8 81 ) X6 )  ( <= ( + Y6 71 ) Y8 )  ( <= ( + Y8 93 ) Y6 )  )
( or ( <= ( + X7 49 ) X8 )  ( <= ( + X8 81 ) X7 )  ( <= ( + Y7 45 ) Y8 )  ( <= ( + Y8 93 ) Y7 )  )
( >= X0 0)
( <= ( + X0 87) Z)
( >= Y0 0)
( <= ( + Y0 26 ) 100)
( >= X1 0)
( <= ( + X1 74) Z)
( >= Y1 0)
( <= ( + Y1 29 ) 100)
( >= X2 0)
( <= ( + X2 77) Z)
( >= Y2 0)
( <= ( + Y2 52 ) 100)
( >= X3 0)
( <= ( + X3 86) Z)
( >= Y3 0)
( <= ( + Y3 32 ) 100)
( >= X4 0)
( <= ( + X4 12) Z)
( >= Y4 0)
( <= ( + Y4 1 ) 100)
( >= X5 0)
( <= ( + X5 71) Z)
( >= Y5 0)
( <= ( + Y5 23 ) 100)
( >= X6 0)
( <= ( + X6 86) Z)
( >= Y6 0)
( <= ( + Y6 71 ) 100)
( >= X7 0)
( <= ( + X7 49) Z)
( >= Y7 0)
( <= ( + Y7 45 ) 100)
( >= X8 0)
( <= ( + X8 81) Z)
( >= Y8 0)
( <= ( + Y8 93 ) 100)
) )
(minimize Z)
(check-sat)
